p tw 95 505
1 3
1 4
1 21
1 22
1 41
1 46
1 51
1 56
1 61
1 66
1 71
1 76
2 3
2 4
2 21
2 22
2 24
2 41
2 46
2 51
2 56
2 61
2 81
2 86
3 4
3 21
3 22
3 23
3 24
3 41
3 46
3 51
3 66
4 21
4 22
4 23
4 24
4 41
4 46
4 56
4 71
4 81
5 7
5 8
5 25
5 26
5 42
5 47
5 52
5 57
5 62
5 67
5 72
5 77
6 7
6 8
6 25
6 26
6 28
6 42
6 47
6 52
6 57
6 62
6 82
6 87
7 8
7 25
7 26
7 27
7 28
7 42
7 47
7 52
7 67
8 25
8 26
8 27
8 28
8 42
8 47
8 57
8 72
8 82
9 11
9 12
9 29
9 30
9 43
9 48
9 53
9 58
9 63
9 68
9 73
9 78
10 11
10 12
10 29
10 30
10 32
10 43
10 48
10 53
10 58
10 63
10 83
10 88
11 12
11 29
11 30
11 31
11 32
11 43
11 48
11 53
11 68
12 29
12 30
12 31
12 32
12 43
12 48
12 58
12 73
12 83
13 15
13 16
13 33
13 34
13 44
13 49
13 54
13 59
13 64
13 69
13 74
13 79
14 15
14 16
14 33
14 34
14 36
14 44
14 49
14 54
14 59
14 64
14 84
14 89
15 16
15 33
15 34
15 35
15 36
15 44
15 49
15 54
15 69
16 33
16 34
16 35
16 36
16 44
16 49
16 59
16 74
16 84
17 19
17 20
17 37
17 38
17 45
17 50
17 55
17 60
17 65
17 70
17 75
17 80
18 19
18 20
18 37
18 38
18 40
18 45
18 50
18 55
18 60
18 65
18 85
18 90
19 20
19 37
19 38
19 39
19 40
19 45
19 50
19 55
19 70
20 37
20 38
20 39
20 40
20 45
20 50
20 60
20 75
20 85
21 22
21 23
21 24
21 41
21 81
21 86
21 91
22 23
22 24
22 41
22 66
22 71
22 76
22 91
23 41
23 56
23 61
23 71
23 76
23 81
23 86
23 91
24 41
24 51
24 61
24 66
24 76
24 86
24 91
25 26
25 27
25 28
25 42
25 82
25 87
25 92
26 27
26 28
26 42
26 67
26 72
26 77
26 92
27 42
27 57
27 62
27 72
27 77
27 82
27 87
27 92
28 42
28 52
28 62
28 67
28 77
28 87
28 92
29 30
29 31
29 32
29 43
29 83
29 88
29 93
30 31
30 32
30 43
30 68
30 73
30 78
30 93
31 43
31 58
31 63
31 73
31 78
31 83
31 88
31 93
32 43
32 53
32 63
32 68
32 78
32 88
32 93
33 34
33 35
33 36
33 44
33 84
33 89
33 94
34 35
34 36
34 44
34 69
34 74
34 79
34 94
35 44
35 59
35 64
35 74
35 79
35 84
35 89
35 94
36 44
36 54
36 64
36 69
36 79
36 89
36 94
37 38
37 39
37 40
37 45
37 85
37 90
37 95
38 39
38 40
38 45
38 70
38 75
38 80
38 95
39 45
39 60
39 65
39 75
39 80
39 85
39 90
39 95
40 45
40 55
40 65
40 70
40 80
40 90
40 95
41 46
41 51
41 56
41 61
41 66
41 71
41 76
41 81
41 86
41 91
42 47
42 52
42 57
42 62
42 67
42 72
42 77
42 82
42 87
42 92
43 48
43 53
43 58
43 63
43 68
43 73
43 78
43 83
43 88
43 93
44 49
44 54
44 59
44 64
44 69
44 74
44 79
44 84
44 89
44 94
45 50
45 55
45 60
45 65
45 70
45 75
45 80
45 85
45 90
45 95
46 47
46 48
46 49
46 50
47 48
47 49
47 50
48 49
48 50
49 50
51 52
51 53
51 54
51 55
52 53
52 54
52 55
53 54
53 55
54 55
56 57
56 58
56 59
56 60
57 58
57 59
57 60
58 59
58 60
59 60
61 62
61 63
61 64
61 65
62 63
62 64
62 65
63 64
63 65
64 65
66 67
66 68
66 69
66 70
67 68
67 69
67 70
68 69
68 70
69 70
71 72
71 73
71 74
71 75
72 73
72 74
72 75
73 74
73 75
74 75
76 77
76 78
76 79
76 80
77 78
77 79
77 80
78 79
78 80
79 80
81 82
81 83
81 84
81 85
82 83
82 84
82 85
83 84
83 85
84 85
86 87
86 88
86 89
86 90
87 88
87 89
87 90
88 89
88 90
89 90
91 92
91 93
91 94
91 95
92 93
92 94
92 95
93 94
93 95
94 95
